param set_len = 16;
param target_sum = 4350221228;
param values := [1] 253360880 [2] 325313454 [3] 1065150369 [4] 884386855 [5] 851165939 [6] 324684013 [7] 889453619 [8] 603305767 [9] 507837644 [10] 696585676 [11] 385379012 [12] 34216100 [13] 654422648 [14] 35161777 [15] 821102964 [16] 732222358 ;
